certificates/rado_a7_c53_N17.cnf
c Rad2 upper bound instance: x1 + 7*x2 - x3 = 53, interval [1,17]
p cnf 17 78
1 4 8 0
-1 -4 -8 0
1 9 11 0
-1 -9 -11 0
2 5 8 0
-2 -5 -8 0
2 9 12 0
-2 -9 -12 0
3 6 8 0
-3 -6 -8 0
3 9 13 0
-3 -9 -13 0
4 7 8 0
-4 -7 -8 0
4 9 14 0
-4 -9 -14 0
1 5 7 0
-1 -5 -7 0
5 8 0
-5 -8 0
5 9 15 0
-5 -9 -15 0
2 6 7 0
-2 -6 -7 0
6 8 9 0
-6 -8 -9 0
6 9 16 0
-6 -9 -16 0
3 7 0
-3 -7 0
7 8 10 0
-7 -8 -10 0
7 9 17 0
-7 -9 -17 0
8 11 0
-8 -11 0
5 7 9 0
-5 -7 -9 0
8 9 12 0
-8 -9 -12 0
6 7 10 0
-6 -7 -10 0
8 10 13 0
-8 -10 -13 0
7 11 0
-7 -11 0
8 11 14 0
-8 -11 -14 0
1 6 12 0
-1 -6 -12 0
7 8 12 0
-7 -8 -12 0
8 12 15 0
-8 -12 -15 0
2 6 13 0
-2 -6 -13 0
7 9 13 0
-7 -9 -13 0
8 13 16 0
-8 -13 -16 0
3 6 14 0
-3 -6 -14 0
7 10 14 0
-7 -10 -14 0
8 14 17 0
-8 -14 -17 0
4 6 15 0
-4 -6 -15 0
7 11 15 0
-7 -11 -15 0
5 6 16 0
-5 -6 -16 0
7 12 16 0
-7 -12 -16 0
6 17 0
-6 -17 0
7 13 17 0
-7 -13 -17 0
