certificates/rado_a7_c53_N17.drat
8 -15 6 0
-8 -17 0
8 6 0
d 8 9 6 0
-17 0
6 0
8 0
-5 0
-9 0
-11 0
-3 0
15 0
-12 0
1 0
2 0
13 0
7 0
-4 0
0
